Version identifier: 22.1.1.0 | 2022-11-28 | 9160aff4d
CPXPARAM_Threads                                 1
CPXPARAM_MIP_Strategy_VariableSelect             3
CPXPARAM_TimeLimit                               599.99995908300002
1 of 1 MIP starts provided solutions.
MIP start 'm1' defined initial solution with objective 173.0000.
Tried aggregator 1 time.
MIP Presolve eliminated 329 rows and 1260 columns.
MIP Presolve modified 29 coefficients.
Reduced MIP has 1574 rows, 2835 columns, and 68142 nonzeros.
Reduced MIP has 2835 binaries, 0 generals, 0 SOSs, and 0 indicators.
Presolve time = 0.04 sec. (112.28 ticks)
Probing time = 0.01 sec. (11.77 ticks)
Tried aggregator 1 time.
Detecting symmetries...
MIP Presolve modified 8 coefficients.
Reduced MIP has 1574 rows, 2835 columns, and 68274 nonzeros.
Reduced MIP has 2835 binaries, 0 generals, 0 SOSs, and 0 indicators.
Presolve time = 0.04 sec. (103.81 ticks)
Probing time = 0.01 sec. (11.77 ticks)
Clique table members: 941.
MIP emphasis: balance optimality and feasibility.
MIP search method: dynamic search.
Parallel mode: none, using 1 thread.
Root relaxation solution time = 0.01 sec. (22.17 ticks)

        Nodes                                         Cuts/
   Node  Left     Objective  IInf  Best Integer    Best Bound    ItCnt     Gap

*     0+    0                          173.0000    49770.0000              --- 
      0     0      315.0000     8      173.0000      315.0000      358   82.08%
*     0+    0                          315.0000      315.0000             0.00%
      0     0        cutoff            315.0000      315.0000      358    0.00%
Elapsed time = 0.13 sec. (311.63 ticks, tree = 0.01 MB, solutions = 2)

Root node processing (before b&c):
  Real time             =    0.13 sec. (311.78 ticks)
Sequential b&c:
  Real time             =    0.00 sec. (0.00 ticks)
                          ------------
Total (root+branch&cut) =    0.13 sec. (311.78 ticks)
Primal:	315
Dual:	315
Status:	Optimal
Time:	0.14
Sequence:
	4
	6
	0
	9
	10
	10
	10
	9
	9
	9
	4
	1
	9
	9
	9
	9
	9
	9
	0
	9
	4
	4
	9
	4
	0
	4
	4
	0
	4
	9
	4
	4
	9
	9
	4
	9
	4
	4
	9
	4
	9
	6
	4
	9
	9
	6
	9
	9
	9
	9
	9
	4
	9
	9
	9
	1
	8
	9
	9
	9
	9
	9
	4
	9
	9
	9
	4
	9
	4
	9
	9
	4
	1
	1
	9
	4
	9
	9
	9
	9
	1
	4
	4
	0
	4
	4
	9
	0
	9
	4
	0
	6
	4
	9
	4
	1
	0
	6
	4
	0
	4
	4
	1
	4
	5
	10
	4
	6
	1
	0
	4
	6
	0
	4
	4
	1
	6
	0
	4
	4
	0
	1
	4
	1
	6
	4
	1
	8
	4
	1
	1
	4
	6
	9
	4
	9
	4
	1
	4
	4
	1
	4
	4
	9
	4
	4
	9
	4
	4
	9
	4
	4
	9
	4
	4
	9
	4
	4
	1
	5
	9
	5
	9
	6
	5
	9
	0
	6
	1
	4
	0
	6
	4
	9
	9
	0
	9
	4
	0
	9
	9
	9
	9
	0
	9
	9
	9
	4
	9
	9
	9
	9
	0
	9
	4
	4
	1
	4
	0
	1
	4
	1
	1
	9
	6
	9
	9
	4
	9
	0
	9
	6
	9
	4
	1
	1
	0
	9
	9
	0
	9
	4
	0
	9
	5
	0
	4
	1
	4
	1
	1
	0
	4
	9
	9
	9
	4
	9
	4
	9
	4
	9
	4
	9
	4
	9
	4
	4
	0
	4
	9
	4
	9
	4
	4
	9
	4
	4
	9
	4
	4
	9
	9
	4
	4
	9
	9
	0
	1
	4
	0
	1
	4
	1
	4
	4
	9
	1
	9
	9
	9
	4
	0
	9
	9
	1
	1
	9
	1
	1
	9
	1
	1
	1
	9
	1
	1
	1
	9
	1
	1
	9
	1
	1
	9
	1
	9
	9
	9
	0
	9
	9
	6
	1
	4
